p tw 540 8101 7 
1 8 
1 111 
2 9 
2 10 
2 112 
3 7 
3 10 
3 281 
4 8 
4 9 
4 282 
5 7 
5 9 
5 371 
6 8 
6 10 
6 372 
11 17 
11 18 
11 41 
12 19 
12 20 
12 42 
13 17 
13 20 
13 341 
14 18 
14 19 
14 342 
15 17 
15 19 
15 411 
16 18 
16 20 
16 412 
21 27 
21 28 
21 71 
22 29 
22 30 
22 72 
23 27 
23 30 
23 381 
24 28 
24 29 
24 382 
25 27 
25 29 
25 491 
26 28 
26 30 
26 492 
31 37 
31 38 
31 51 
32 39 
32 40 
32 52 
33 37 
33 40 
33 101 
34 38 
34 39 
34 102 
35 37 
35 39 
35 531 
36 38 
36 40 
36 532 
41 47 
41 48 
42 49 
42 50 
43 47 
43 50 
43 221 
44 48 
44 49 
44 222 
45 47 
45 49 
45 361 
46 48 
46 50 
46 362 
51 57 
51 58 
52 59 
52 60 
53 57 
53 60 
53 421 
54 58 
54 59 
54 422 
55 57 
55 59 
55 471 
56 58 
56 60 
56 472 
61 67 
61 68 
61 161 
62 69 
62 70 
62 162 
63 67 
63 70 
63 171 
64 68 
64 69 
64 172 
65 67 
65 69 
65 401 
66 68 
66 70 
66 402 
71 77 
71 78 
72 79 
72 80 
73 77 
73 80 
73 211 
74 78 
74 79 
74 212 
75 77 
75 79 
75 473 
76 78 
76 80 
76 474 
81 87 
81 88 
81 141 
82 89 
82 90 
82 142 
83 87 
83 90 
83 251 
84 88 
84 89 
84 252 
85 87 
85 89 
85 271 
86 88 
86 90 
86 272 
91 97 
91 98 
91 143 
92 99 
92 100 
92 144 
93 97 
93 100 
93 311 
94 98 
94 99 
94 312 
95 97 
95 99 
95 391 
96 98 
96 100 
96 392 
101 107 
101 108 
102 109 
102 110 
103 107 
103 110 
103 131 
104 108 
104 109 
104 132 
105 107 
105 109 
105 423 
106 108 
106 110 
106 424 
111 117 
111 118 
112 119 
112 120 
113 117 
113 120 
113 291 
114 118 
114 119 
114 292 
115 117 
115 119 
115 425 
116 118 
116 120 
116 426 
121 127 
121 128 
121 191 
122 129 
122 130 
122 192 
123 127 
123 130 
123 241 
124 128 
124 129 
124 242 
125 127 
125 129 
125 261 
126 128 
126 130 
126 262 
131 137 
131 138 
132 139 
132 140 
133 137 
133 140 
133 243 
134 138 
134 139 
134 244 
135 137 
135 139 
135 331 
136 138 
136 140 
136 332 
141 147 
141 148 
142 149 
142 150 
143 147 
143 150 
144 148 
144 149 
145 147 
145 149 
145 413 
146 148 
146 150 
146 414 
151 157 
151 158 
151 201 
152 159 
152 160 
152 202 
153 157 
153 160 
153 403 
154 158 
154 159 
154 404 
155 157 
155 159 
155 451 
156 158 
156 160 
156 452 
161 167 
161 168 
162 169 
162 170 
163 167 
163 170 
163 193 
164 168 
164 169 
164 194 
165 167 
165 169 
165 475 
166 168 
166 170 
166 476 
171 177 
171 178 
172 179 
172 180 
173 177 
173 180 
173 245 
174 178 
174 179 
174 246 
175 177 
175 179 
175 461 
176 178 
176 180 
176 462 
181 187 
181 188 
181 321 
182 189 
182 190 
182 322 
183 187 
183 190 
183 351 
184 188 
184 189 
184 352 
185 187 
185 189 
185 363 
186 188 
186 190 
186 364 
191 197 
191 198 
192 199 
192 200 
193 197 
193 200 
194 198 
194 199 
195 197 
195 199 
195 431 
196 198 
196 200 
196 432 
201 207 
201 208 
202 209 
202 210 
203 207 
203 210 
203 433 
204 208 
204 209 
204 434 
205 207 
205 209 
205 453 
206 208 
206 210 
206 454 
211 217 
211 218 
212 219 
212 220 
213 217 
213 220 
213 365 
214 218 
214 219 
214 366 
215 217 
215 219 
215 393 
216 218 
216 220 
216 394 
221 227 
221 228 
222 229 
222 230 
223 227 
223 230 
223 263 
224 228 
224 229 
224 264 
225 227 
225 229 
225 441 
226 228 
226 230 
226 442 
231 237 
231 238 
231 253 
232 239 
232 240 
232 254 
233 237 
233 240 
233 343 
234 238 
234 239 
234 344 
235 237 
235 239 
235 443 
236 238 
236 240 
236 444 
241 247 
241 248 
242 249 
242 250 
243 247 
243 250 
244 248 
244 249 
245 247 
245 249 
246 248 
246 250 
251 257 
251 258 
252 259 
252 260 
253 257 
253 260 
254 258 
254 259 
255 257 
255 259 
255 395 
256 258 
256 260 
256 396 
261 267 
261 268 
262 269 
262 270 
263 267 
263 270 
264 268 
264 269 
265 267 
265 269 
265 333 
266 268 
266 270 
266 334 
271 277 
271 278 
272 279 
272 280 
273 277 
273 280 
273 383 
274 278 
274 279 
274 384 
275 277 
275 279 
275 493 
276 278 
276 280 
276 494 
281 287 
281 288 
282 289 
282 290 
283 287 
283 290 
283 313 
284 288 
284 289 
284 314 
285 287 
285 289 
285 345 
286 288 
286 290 
286 346 
291 297 
291 298 
292 299 
292 300 
293 297 
293 300 
293 495 
294 298 
294 299 
294 496 
295 297 
295 299 
295 511 
296 298 
296 300 
296 512 
301 307 
301 308 
301 455 
302 309 
302 310 
302 456 
303 307 
303 310 
303 501 
304 308 
304 309 
304 502 
305 307 
305 309 
305 513 
306 308 
306 310 
306 514 
311 317 
311 318 
312 319 
312 320 
313 317 
313 320 
314 318 
314 319 
315 317 
315 319 
315 503 
316 318 
316 320 
316 504 
321 327 
321 328 
322 329 
322 330 
323 327 
323 330 
323 335 
324 328 
324 329 
324 336 
325 327 
325 329 
325 353 
326 328 
326 330 
326 354 
331 337 
331 338 
332 339 
332 340 
333 337 
333 340 
334 338 
334 339 
335 337 
335 339 
336 338 
336 340 
341 347 
341 348 
342 349 
342 350 
343 347 
343 350 
344 348 
344 349 
345 347 
345 349 
346 348 
346 350 
351 357 
351 358 
352 359 
352 360 
353 357 
353 360 
354 358 
354 359 
355 357 
355 359 
355 373 
356 358 
356 360 
356 374 
361 367 
361 368 
362 369 
362 370 
363 367 
363 370 
364 368 
364 369 
365 367 
365 369 
366 368 
366 370 
371 377 
371 378 
372 379 
372 380 
373 377 
373 380 
374 378 
374 379 
375 377 
375 379 
375 521 
376 378 
376 380 
376 522 
381 387 
381 388 
382 389 
382 390 
383 387 
383 390 
384 388 
384 389 
385 387 
385 389 
385 481 
386 388 
386 390 
386 482 
391 397 
391 398 
392 399 
392 400 
393 397 
393 400 
394 398 
394 399 
395 397 
395 399 
396 398 
396 400 
401 407 
401 408 
402 409 
402 410 
403 407 
403 410 
404 408 
404 409 
405 407 
405 409 
405 523 
406 408 
406 410 
406 524 
411 417 
411 418 
412 419 
412 420 
413 417 
413 420 
414 418 
414 419 
415 417 
415 419 
415 533 
416 418 
416 420 
416 534 
421 427 
421 428 
422 429 
422 430 
423 427 
423 430 
424 428 
424 429 
425 427 
425 429 
426 428 
426 430 
431 437 
431 438 
432 439 
432 440 
433 437 
433 440 
434 438 
434 439 
435 437 
435 439 
435 463 
436 438 
436 440 
436 464 
441 447 
441 448 
442 449 
442 450 
443 447 
443 450 
444 448 
444 449 
445 447 
445 449 
445 465 
446 448 
446 450 
446 466 
451 457 
451 458 
452 459 
452 460 
453 457 
453 460 
454 458 
454 459 
455 457 
455 459 
456 458 
456 460 
461 467 
461 468 
462 469 
462 470 
463 467 
463 470 
464 468 
464 469 
465 467 
465 469 
466 468 
466 470 
471 477 
471 478 
472 479 
472 480 
473 477 
473 480 
474 478 
474 479 
475 477 
475 479 
476 478 
476 480 
481 487 
481 488 
482 489 
482 490 
483 487 
483 490 
483 515 
484 488 
484 489 
484 516 
485 487 
485 489 
485 535 
486 488 
486 490 
486 536 
491 497 
491 498 
492 499 
492 500 
493 497 
493 500 
494 498 
494 499 
495 497 
495 499 
496 498 
496 500 
501 507 
501 508 
502 509 
502 510 
503 507 
503 510 
504 508 
504 509 
505 507 
505 509 
505 525 
506 508 
506 510 
506 526 
511 517 
511 518 
512 519 
512 520 
513 517 
513 520 
514 518 
514 519 
515 517 
515 519 
516 518 
516 520 
521 527 
521 528 
522 529 
522 530 
523 527 
523 530 
524 528 
524 529 
525 527 
525 529 
526 528 
526 530 
531 537 
531 538 
532 539 
532 540 
533 537 
533 540 
534 538 
534 539 
535 537 
535 539 
536 538 
536 540 
